Maximize

5 y_0 + 3 y_1 + 3 y_2 + 3 y_3 + 1 y_4 + 3 y_5 + 3 y_6 + 0 y_7 + 1 y_8 + 5 y_9 + 1 y_10 + 5 y_11 + 4 y_12 + 0 y_13 + 2 y_14 + 1 y_15 + 4 y_16 + 3 y_17 + 4 y_18 + 4 y_19 + 4 y_20 + 4 y_21 + 2 y_22 + 1 y_23 + 2 y_24 + 0 y_25 + 2 y_26 + 2 y_27 + 4 y_28 + 2 y_29 + 3 y_30 + 5 y_31 + 3 y_32 + 2 y_33 + 2 y_34 + 4 y_35 + 1 y_36 + 4 y_37 + 0 y_38 + 1 y_39 + 1 y_40 + 5 y_41 + 1 y_42 + 1 y_43 + 1 y_44 + 0 y_45 + 0 y_46 + 4 y_47 + 1 y_48 + 4 y_49


Subject To

a0: 1768.1 y_0 + 1952.8 y_1 + 1621.6 y_2 + 1412.1 y_3 + 1853.4 y_4 + 1680.5 y_5 + 1933.6 y_6 + 1492.8 y_7 + 1835.8 y_8 + 1387.0 y_9 + 1958.2 y_10 + 1095.9 y_11 + 1291.7 y_12 + 1812.9 y_13 + 1247.2 y_14 + 1691.4 y_15 + 1055.9 y_16 + 1973.2 y_17 + 1923.7 y_18 + 1139.8 y_19 + 1535.4 y_20 + 1524.7 y_21 + 1486.7 y_22 + 1650.6 y_23 + 1181.8 y_24 + 1532.1 y_25 + 1609.5 y_26 + 1006.4 y_27 + 1647.5 y_28 + 1252.1 y_29 + 1384.0 y_30 + 1821.9 y_31 + 1496.8 y_32 + 1597.0 y_33 + 1821.3 y_34 + 1940.1 y_35 + 1055.7 y_36 + 1312.4 y_37 + 1216.9 y_38 + 1744.0 y_39 + 1374.3 y_40 + 1493.7 y_41 + 1100.2 y_42 + 1492.6 y_43 + 1930.1 y_44 + 1388.7 y_45 + 1945.6 y_46 + 1946.1 y_47 + 1833.2 y_48 + 1944.4 y_49 <= 47560.0
b0: y_5 + y_7 + y_48 >= 1
b1: y_19 + y_31 + y_38 + y_40 + y_48 >= 1
b2: y_7 + y_11 + y_26 + y_32 + y_40 + y_49 >= 1
b3: y_12 + y_16 + y_19 + y_23 + y_24 + y_32 + y_35 >= 1
b4: y_16 + y_18 + y_36 + y_41 + y_43 >= 1
b5: y_0 + y_10 + y_11 + y_21 + y_23 + y_26 + y_34 + y_40 + y_45 >= 1
b6: y_0 + y_5 + y_9 + y_11 + y_14 + y_16 + y_25 + y_34 + y_36 + y_43 + y_47 + y_49 >= 1
b7: y_1 + y_3 + y_4 + y_5 + y_13 + y_17 + y_22 + y_28 + y_34 + y_43 + y_47 >= 1
b8: y_3 + y_10 + y_16 + y_17 + y_21 + y_27 + y_41 >= 1
b9: y_4 + y_10 + y_14 + y_20 + y_27 + y_33 + y_45 >= 1
c0: y_0 + y_19 <= 1
c1: y_0 + y_39 <= 1
c2: y_1 + y_13 <= 1
c3: y_1 + y_17 <= 1
c4: y_1 + y_23 <= 1
c5: y_2 + y_6 <= 1
c6: y_2 + y_9 <= 1
c7: y_2 + y_10 <= 1
c8: y_2 + y_11 <= 1
c9: y_3 + y_23 <= 1
c10: y_3 + y_44 <= 1
c11: y_4 + y_47 <= 1
c12: y_5 + y_7 <= 1
c13: y_5 + y_13 <= 1
c14: y_5 + y_28 <= 1
c15: y_6 + y_2 <= 1
c16: y_6 + y_17 <= 1
c17: y_6 + y_32 <= 1
c18: y_7 + y_5 <= 1
c19: y_7 + y_11 <= 1
c20: y_7 + y_46 <= 1
c21: y_8 + y_19 <= 1
c22: y_8 + y_43 <= 1
c23: y_9 + y_2 <= 1
c24: y_9 + y_25 <= 1
c25: y_10 + y_2 <= 1
c26: y_10 + y_16 <= 1
c27: y_11 + y_2 <= 1
c28: y_11 + y_7 <= 1
c29: y_11 + y_34 <= 1
c30: y_12 + y_18 <= 1
c31: y_12 + y_41 <= 1
c32: y_13 + y_1 <= 1
c33: y_13 + y_5 <= 1
c34: y_13 + y_26 <= 1
c35: y_14 + y_15 <= 1
c36: y_15 + y_14 <= 1
c37: y_15 + y_30 <= 1
c38: y_16 + y_10 <= 1
c39: y_17 + y_1 <= 1
c40: y_17 + y_6 <= 1
c41: y_18 + y_12 <= 1
c42: y_18 + y_20 <= 1
c43: y_19 + y_0 <= 1
c44: y_19 + y_8 <= 1
c45: y_20 + y_18 <= 1
c46: y_20 + y_25 <= 1
c47: y_21 + y_38 <= 1
c48: y_21 + y_40 <= 1
c49: y_22 + y_27 <= 1
c50: y_22 + y_45 <= 1
c51: y_23 + y_1 <= 1
c52: y_23 + y_3 <= 1
c53: y_24 + y_33 <= 1
c54: y_24 + y_37 <= 1
c55: y_25 + y_9 <= 1
c56: y_25 + y_20 <= 1
c57: y_25 + y_42 <= 1
c58: y_26 + y_13 <= 1
c59: y_26 + y_39 <= 1
c60: y_27 + y_22 <= 1
c61: y_28 + y_5 <= 1
c62: y_29 + y_47 <= 1
c63: y_30 + y_15 <= 1
c64: y_30 + y_37 <= 1
c65: y_30 + y_47 <= 1
c66: y_31 + y_37 <= 1
c67: y_32 + y_6 <= 1
c68: y_32 + y_49 <= 1
c69: y_33 + y_24 <= 1
c70: y_33 + y_43 <= 1
c71: y_34 + y_11 <= 1
c72: y_35 + y_41 <= 1
c73: y_36 + y_47 <= 1
c74: y_37 + y_24 <= 1
c75: y_37 + y_30 <= 1
c76: y_37 + y_31 <= 1
c77: y_38 + y_21 <= 1
c78: y_38 + y_41 <= 1
c79: y_39 + y_0 <= 1
c80: y_39 + y_26 <= 1
c81: y_40 + y_21 <= 1
c82: y_41 + y_12 <= 1
c83: y_41 + y_35 <= 1
c84: y_41 + y_38 <= 1
c85: y_42 + y_25 <= 1
c86: y_43 + y_8 <= 1
c87: y_43 + y_33 <= 1
c88: y_44 + y_3 <= 1
c89: y_45 + y_22 <= 1
c90: y_45 + y_46 <= 1
c91: y_46 + y_7 <= 1
c92: y_46 + y_45 <= 1
c93: y_46 + y_48 <= 1
c94: y_47 + y_4 <= 1
c95: y_47 + y_29 <= 1
c96: y_47 + y_30 <= 1
c97: y_47 + y_36 <= 1
c98: y_48 + y_46 <= 1
c99: y_49 + y_32 <= 1




Binary

y_0 y_1 y_2 y_3 y_4 y_5 y_6 y_7 y_8 y_9 y_10 y_11 y_12 y_13 y_14 y_15 y_16 y_17 y_18 y_19 y_20 y_21 y_22 y_23 y_24 y_25 y_26 y_27 y_28 y_29 y_30 y_31 y_32 y_33 y_34 y_35 y_36 y_37 y_38 y_39 y_40 y_41 y_42 y_43 y_44 y_45 y_46 y_47 y_48 y_49

 


End
